proyfinal/src/viki/013/experimentInOfficeAgust.take6.output/e5e88adb-71a7-4024-9af4-ea5e5ff67831.als.out
Reading from standard input... Use '--help' for help.
============================[ Problem Statistics ]=============================
|                                                                             |
|  Number of variables:         87638                                         |
|  Number of clauses:          161767                                         |
|  Parse time:                   0.04 s                                       |
|                                                                             |
============================[ Search Statistics ]==============================
| Conflicts |          ORIGINAL         |          LEARNT          | Progress |
|           |    Vars  Clauses Literals |    Limit  Clauses Lit/Cl |          |
===============================================================================
|       100 |   62058   103966   259834 |    38120      100     39 | 29.188 % |
|       250 |   62058   103966   259834 |    41932      250    122 | 29.188 % |
|       475 |   48174    65776   165860 |    46126      464    128 | 45.031 % |
|       812 |   48162    65501   165261 |    50738      798     98 | 45.044 % |
|      1318 |   47505    65115   164333 |    55812     1297     94 | 45.794 % |
|      2077 |   47390    62442   157843 |    61394     2000     73 | 45.925 % |
|      3216 |   46750    60168   152035 |    67533     2733     62 | 46.656 % |
|      4924 |   46643    59719   150893 |    74286     4425     50 | 46.778 % |
|      7486 |   46579    59448   150232 |    81715     6981     43 | 46.851 % |
===============================================================================
restarts              : 33
conflicts             : 8156           (9209 /sec)
decisions             : 26792          (0.00 % random) (30250 /sec)
propagations          : 11129745       (12566171 /sec)
conflict literals     : 331422         (39.57 % deleted)
Memory used           : 21.87 MB
CPU time              : 0.885691 s

UNSATISFIABLE
